units real
atom_style full

dimension 3
boundary p p p

bond_style  hybrid	harmonic 

special_bonds lj 0.0 0.0 0.0 coul 0.0 0.0 0.0

region box block -50 50 -50 50 -50 50

#***************ASSIGN IMPORTANT VALUES HERE***************
variable	n_mols		index		1000
variable	n_frames	index		500000
variable	dt		index		1
variable	stride		index		1000	

variable 	pos_rw		index		-25
variable 	pos_ts		index		0
variable	pos_pw		index		25

#Assign the viscosity coefficient(eta) or the damping factor for the langevin thermostat here, or scale it.

variable 	scale	index		1.0
variable	eta	equal		0.008509*v_scale #Viscosity is in g cm-1 s-1 (poise)
variable	d	equal		3.39967e-8
variable	m	equal		12.01070
variable	avogadro	equal	6.023e23
variable	step	equal		v_dt	#*v_scale
variable	damp	equal		20.0/v_scale	#v_m/(3*PI*v_eta*v_d*v_avogadro)*1.0e15
variable	gamma	equal		1.0/v_damp	#Friction coefficient (gamma) in fs-1

print		"${scale}	${damp}(fs)		${gamma}(fs-1)"	append	traj_info.dat	

#*********CREATING BOX, FILLING IT WIH MOLECULES AND LOADING MOLECULE PARAMETERS**********

create_box 2 box &
bond/types 1 &
extra/bond/per/atom 2 &
extra/special/per/atom 2

include		params.lmp


molecule dimer	molecule.dimer.tsres
region		init	sphere	1.25	0.0	0.0	3.75 


variable	pos_init	index	${pos_rw}
variable	i	loop	${n_mols}
label		init_loop	
	create_atoms	0	single ${pos_init}	0.0	0.0	mol	dimer	48675463	rotate	0 0 1 0 rotate 0 0 0 1
	next		i
jump	SELF		init_loop

#create_atoms	0	random	${n_mols}	983164  init 	mol	dimer	48675463	rotate	0 0 1 0 rotate 0 0 0 1
#create_atoms	1	random	${n_mols}	983164	init
#create_atoms	2	random	${n_mols}	983146	init


group	1	type	1
group	2	type	2
group	rmode	type	1	2
#************ SETTINGP UP EXTERNAL POTENTIAL, GENERATING INITIAL VELOCITIES*****************
variable        u               index            6.96
variable        n               index            2
variable	L		index		20
variable	k		equal		(2*PI*v_n)/(v_L)

variable	exforce		atom	((v_u/(2*4.18))*v_k)*sin(x*v_k)		


variable	a		index		${pos_rw}
variable	b		index		${pos_pw}
variable	prefac		equal		(16*(v_u/4.18))/((v_a-v_b)^4)
variable	exforce2	atom	-2*v_prefac*(x-v_a)*(x-v_b)*((x-v_a)+(x-v_b))

velocity all create 300.0 359112 dist gaussian mom yes rot yes
velocity all set	NULL	0.0	0.0	#ENABLE THIS TO SET INITIAL Y AND Z VELOCITIES TO ZERO (IN CASE YOU DONT WANT ANY Y AND Z MOTION).THEN ENABLE THE FIX SETFORCE BELOW ALONG WITH THIS.
velocity 2   set	0.0	0.0	0.0

timestep 	${step}
neigh_modify every 10 delay 20 check yes

#********************FILE OUTPUT SETTINGS*****************************
thermo          10000
thermo_style    custom  step    temp    pe      press   density vol

thermo_modify   lost    ignore

dump 1 all xtc ${stride} traj.xtc #id type x y z vx vy vz
dump 2 rmode custom ${stride} rmode.dump id type x y z vx vy vz
dump 3 1     custom ${stride} q1.dump	id type x y z vx vy vz
dump 4 2     custom ${stride} q2.dump	id type x y z vx vy vz

#**************THERMOSTAT AND SIMULATION SETTINGS**********************
variable seed equal 56456546     # a seed for the thermostat

fix 1 all nve					
fix 2 1 langevin   300.0 300.0 ${damp} ${seed} # langevin thermostat

fix 5 all setforce	NULL	0.0	0.0			#ENABLE THIS TO STOP APPLYING RANDOM FORCES AND FRICTION ALONG Y AND Z DIRECTIONS
fix 6 2 addforce   v_exforce2	0.0	0.0

fix totf   all store/force
fix constr 2 	setforce	0.0	0.0	0.0

#fix 3 all nvt	temp	300.0	300.0	1

#fix 4 all temp/rescale 10	300	300	0.05	1.0	#ENABLE A VELOCITY RESCALE THERMOSTAT

#************************RUN SIMULATION********************************
dump 7  2	custom	${stride}	totforce.dump	id type	f_totf[1] f_totf[2] f_totf[3]
dump 8  2	custom	${stride}	forces.dump	id type fx	fy	fz
run ${n_frames}
